# Solution for model PD-Stages
# Objective value = 3.2117725487515216e+01
zigjg[101,102,7] 1
zigjg[101,203,7] 0
zigjg[101,303,7] 0
zigjg[101,304,7] 0
zigjg[101,405,7] 0
zigjg[101,505,7] 0
zigjg[101,506,7] 0
zigjg[101,607,7] 0
zigjg[101,707,7] 0
zigjg[101,708,7] 0
zigjg[101,809,7] 0
zigjg[101,909,7] 0
zigjg[102,101,7] 0
zigjg[102,203,7] 0
zigjg[102,303,7] 0
zigjg[102,304,7] 1
zigjg[102,405,7] 0
zigjg[102,505,7] 0
zigjg[102,506,7] 0
zigjg[102,607,7] 0
zigjg[102,707,7] 0
zigjg[102,708,7] 0
zigjg[102,809,7] 0
zigjg[102,909,7] 0
zigjg[203,101,7] 0
zigjg[203,102,7] 0
zigjg[203,303,7] 0
zigjg[203,304,7] 0
zigjg[203,405,7] 0
zigjg[203,505,7] 0
zigjg[203,506,7] 0
zigjg[203,607,7] 0
zigjg[203,707,7] 0
zigjg[203,708,7] 1
zigjg[203,809,7] 0
zigjg[203,909,7] 0
zigjg[303,101,7] 0
zigjg[303,102,7] 0
zigjg[303,203,7] 1
zigjg[303,304,7] 0
zigjg[303,405,7] 0
zigjg[303,505,7] 0
zigjg[303,506,7] 0
zigjg[303,607,7] 0
zigjg[303,707,7] 0
zigjg[303,708,7] 0
zigjg[303,809,7] 0
zigjg[303,909,7] 0
zigjg[304,101,7] 0
zigjg[304,102,7] 0
zigjg[304,203,7] 0
zigjg[304,303,7] 0
zigjg[304,405,7] 0
zigjg[304,505,7] 0
zigjg[304,506,7] 1
zigjg[304,607,7] 0
zigjg[304,707,7] 0
zigjg[304,708,7] 0
zigjg[304,809,7] 0
zigjg[304,909,7] 0
zigjg[405,101,7] 0
zigjg[405,102,7] 0
zigjg[405,203,7] 0
zigjg[405,303,7] 0
zigjg[405,304,7] 0
zigjg[405,505,7] 1
zigjg[405,506,7] 0
zigjg[405,607,7] 0
zigjg[405,707,7] 0
zigjg[405,708,7] 0
zigjg[405,809,7] 0
zigjg[405,909,7] 0
zigjg[505,101,7] 0
zigjg[505,102,7] 0
zigjg[505,203,7] 0
zigjg[505,303,7] 0
zigjg[505,304,7] 0
zigjg[505,405,7] 0
zigjg[505,506,7] 0
zigjg[505,607,7] 1
zigjg[505,707,7] 0
zigjg[505,708,7] 0
zigjg[505,809,7] 0
zigjg[505,909,7] 0
zigjg[506,101,7] 0
zigjg[506,102,7] 0
zigjg[506,203,7] 0
zigjg[506,303,7] 0
zigjg[506,304,7] 0
zigjg[506,405,7] 0
zigjg[506,505,7] 0
zigjg[506,607,7] 0
zigjg[506,707,7] 1
zigjg[506,708,7] 0
zigjg[506,809,7] 0
zigjg[506,909,7] 0
zigjg[607,101,7] 0
zigjg[607,102,7] 0
zigjg[607,203,7] 0
zigjg[607,303,7] 1
zigjg[607,304,7] 0
zigjg[607,405,7] 0
zigjg[607,505,7] 0
zigjg[607,506,7] 0
zigjg[607,707,7] 0
zigjg[607,708,7] 0
zigjg[607,809,7] 0
zigjg[607,909,7] 0
zigjg[707,101,7] 0
zigjg[707,102,7] 0
zigjg[707,203,7] 0
zigjg[707,303,7] 0
zigjg[707,304,7] 0
zigjg[707,405,7] 0
zigjg[707,505,7] 0
zigjg[707,506,7] 0
zigjg[707,607,7] 0
zigjg[707,708,7] 0
zigjg[707,809,7] 1
zigjg[707,909,7] 0
zigjg[708,101,7] 0
zigjg[708,102,7] 0
zigjg[708,203,7] 0
zigjg[708,303,7] 0
zigjg[708,304,7] 0
zigjg[708,405,7] 0
zigjg[708,505,7] 0
zigjg[708,506,7] 0
zigjg[708,607,7] 0
zigjg[708,707,7] 0
zigjg[708,809,7] 0
zigjg[708,909,7] 1
zigjg[809,101,7] 0
zigjg[809,102,7] 0
zigjg[809,203,7] 0
zigjg[809,303,7] 0
zigjg[809,304,7] 0
zigjg[809,405,7] 1
zigjg[809,505,7] 0
zigjg[809,506,7] 0
zigjg[809,607,7] 0
zigjg[809,707,7] 0
zigjg[809,708,7] 0
zigjg[809,909,7] 0
zigjg[909,101,7] 1
zigjg[909,102,7] 0
zigjg[909,203,7] 0
zigjg[909,303,7] 0
zigjg[909,304,7] 0
zigjg[909,405,7] 0
zigjg[909,505,7] 0
zigjg[909,506,7] 0
zigjg[909,607,7] 0
zigjg[909,707,7] 0
zigjg[909,708,7] 0
zigjg[909,809,7] 0
sig[101,7] 0
sig[102,7] 1
sig[203,7] 10
sig[303,7] 9
sig[304,7] 2
sig[405,7] 6
sig[505,7] 7
sig[506,7] 3
sig[607,7] 8
sig[707,7] 4
sig[708,7] 11
sig[809,7] 5
sig[909,7] 12
digjg[101,102,7] 6.4785975646962224e-01
digjg[101,203,7] 10000
digjg[101,303,7] 10000
digjg[101,304,7] 10000
digjg[101,405,7] 10000
digjg[101,505,7] 10000
digjg[101,506,7] 10000
digjg[101,607,7] 10000
digjg[101,707,7] 10000
digjg[101,708,7] 10000
digjg[101,809,7] 10000
digjg[101,909,7] 10000
digjg[102,101,7] 10000
digjg[102,203,7] 10000
digjg[102,303,7] 10000
digjg[102,304,7] 3.6742798776220664e-01
digjg[102,405,7] 10000
digjg[102,505,7] 10000
digjg[102,506,7] 10000
digjg[102,607,7] 10000
digjg[102,707,7] 10000
digjg[102,708,7] 10000
digjg[102,809,7] 10000
digjg[102,909,7] 10000
digjg[203,101,7] 10000
digjg[203,102,7] 10000
digjg[203,303,7] 10000
digjg[203,304,7] 10000
digjg[203,405,7] 10000
digjg[203,505,7] 10000
digjg[203,506,7] 10000
digjg[203,607,7] 10000
digjg[203,707,7] 10000
digjg[203,708,7] 6.1725399244867720e+00
digjg[203,809,7] 10000
digjg[203,909,7] 10000
digjg[303,101,7] 10000
digjg[303,102,7] 10000
digjg[303,203,7] 2.8730571066572552e-01
digjg[303,304,7] 10000
digjg[303,405,7] 10000
digjg[303,505,7] 10000
digjg[303,506,7] 10000
digjg[303,607,7] 10000
digjg[303,707,7] 10000
digjg[303,708,7] 10000
digjg[303,809,7] 10000
digjg[303,909,7] 10000
digjg[304,101,7] 10000
digjg[304,102,7] 10000
digjg[304,203,7] 10000
digjg[304,303,7] 10000
digjg[304,405,7] 10000
digjg[304,505,7] 10000
digjg[304,506,7] 4.5634880649970886e-06
digjg[304,607,7] 10000
digjg[304,707,7] 10000
digjg[304,708,7] 10000
digjg[304,809,7] 10000
digjg[304,909,7] 10000
digjg[405,101,7] 10000
digjg[405,102,7] 10000
digjg[405,203,7] 10000
digjg[405,303,7] 10000
digjg[405,304,7] 10000
digjg[405,505,7] 1.6588999911295026e+00
digjg[405,506,7] 10000
digjg[405,607,7] 10000
digjg[405,707,7] 10000
digjg[405,708,7] 10000
digjg[405,809,7] 10000
digjg[405,909,7] 10000
digjg[505,101,7] 10000
digjg[505,102,7] 10000
digjg[505,203,7] 10000
digjg[505,303,7] 10000
digjg[505,304,7] 10000
digjg[505,405,7] 10000
digjg[505,506,7] 10000
digjg[505,607,7] 4.96852295274877e-09
digjg[505,707,7] 10000
digjg[505,708,7] 10000
digjg[505,809,7] 10000
digjg[505,909,7] 10000
digjg[506,101,7] 10000
digjg[506,102,7] 10000
digjg[506,203,7] 10000
digjg[506,303,7] 10000
digjg[506,304,7] 10000
digjg[506,405,7] 10000
digjg[506,505,7] 10000
digjg[506,607,7] 10000
digjg[506,707,7] 7.2988685442697288e-01
digjg[506,708,7] 10000
digjg[506,809,7] 10000
digjg[506,909,7] 10000
digjg[607,101,7] 10000
digjg[607,102,7] 10000
digjg[607,203,7] 10000
digjg[607,303,7] 1.8964931381911199e+00
digjg[607,304,7] 10000
digjg[607,405,7] 10000
digjg[607,505,7] 10000
digjg[607,506,7] 10000
digjg[607,707,7] 10000
digjg[607,708,7] 10000
digjg[607,809,7] 10000
digjg[607,909,7] 10000
digjg[707,101,7] 10000
digjg[707,102,7] 10000
digjg[707,203,7] 10000
digjg[707,303,7] 10000
digjg[707,304,7] 10000
digjg[707,405,7] 10000
digjg[707,505,7] 10000
digjg[707,506,7] 10000
digjg[707,607,7] 10000
digjg[707,708,7] 10000
digjg[707,809,7] 1.0305361285146721e-08
digjg[707,909,7] 10000
digjg[708,101,7] 10000
digjg[708,102,7] 10000
digjg[708,203,7] 10000
digjg[708,303,7] 10000
digjg[708,304,7] 10000
digjg[708,405,7] 10000
digjg[708,505,7] 10000
digjg[708,506,7] 10000
digjg[708,607,7] 10000
digjg[708,707,7] 10000
digjg[708,809,7] 10000
digjg[708,909,7] 1.0219311267897278e+00
digjg[809,101,7] 10000
digjg[809,102,7] 10000
digjg[809,203,7] 10000
digjg[809,303,7] 10000
digjg[809,304,7] 10000
digjg[809,405,7] 2.1076528647982653e+00
digjg[809,505,7] 10000
digjg[809,506,7] 10000
digjg[809,607,7] 10000
digjg[809,707,7] 10000
digjg[809,708,7] 10000
digjg[809,909,7] 10000
digjg[909,101,7] 4.7201470339070983e+00
digjg[909,102,7] 10000
digjg[909,203,7] 10000
digjg[909,303,7] 10000
digjg[909,304,7] 10000
digjg[909,405,7] 10000
digjg[909,505,7] 10000
digjg[909,506,7] 10000
digjg[909,607,7] 10000
digjg[909,707,7] 10000
digjg[909,708,7] 10000
digjg[909,809,7] 10000
difigjg[101,102,7,0] 2.7229827563653108e-02
difigjg[101,102,7,1] 6.4728725745591631e-01
difigjg[101,203,7,0] 4.4805294516976437e+03
difigjg[101,203,7,1] 4.8285862735283390e+03
difigjg[101,303,7,0] 5102.31150595682
difigjg[101,303,7,1] 3.6600976393758469e+03
difigjg[101,304,7,0] 5.1152737390343636e+03
difigjg[101,304,7,1] 4.0991650935680163e+03
difigjg[101,405,7,0] 4.6391208312200251e+03
difigjg[101,405,7,1] 4.0560351665256803e+03
difigjg[101,505,7,0] 5.1015452319600272e+03
difigjg[101,505,7,1] 3.9352468248252458e+03
difigjg[101,506,7,0] 5.0855764925082058e+03
difigjg[101,506,7,1] 3.9485646082033923e+03
difigjg[101,607,7,0] 4.5643316731469695e+03
difigjg[101,607,7,1] 4.0640496323027860e+03
difigjg[101,707,7,0] 5.1446752045202720e+03
difigjg[101,707,7,1] 3.6568231712299589e+03
difigjg[101,708,7,0] 4.1230189293651256e+03
difigjg[101,708,7,1] 3.9512990835676269e+03
difigjg[101,809,7,0] 4.5936456102485117e+03
difigjg[101,809,7,1] 3.9998620443901127e+03
difigjg[101,909,7,0] 5.1868010661045791e+03
difigjg[101,909,7,1] 3.6772969348620686e+03
difigjg[102,101,7,0] 5236.84209807923
difigjg[102,101,7,1] 3.9081207353719624e+03
difigjg[102,203,7,0] 4.1618405960104355e+03
difigjg[102,203,7,1] 4.8348621200009775e+03
difigjg[102,303,7,0] 4355.58039478254
difigjg[102,303,7,1] 4.0190993057371084e+03
difigjg[102,304,7,0] 1.2402859146551033e-01
difigjg[102,304,7,1] 3.4586156246290317e-01
difigjg[102,405,7,0] 3.8587717694580629e+03
difigjg[102,405,7,1] 4.1036786771400712e+03
difigjg[102,505,7,0] 4.2925776543846951e+03
difigjg[102,505,7,1] 4.0216722115318589e+03
difigjg[102,506,7,0] 4.9687521418826391e+03
difigjg[102,506,7,1] 3.8649782736299749e+03
difigjg[102,607,7,0] 4.1909635911395007e+03
difigjg[102,607,7,1] 3.9815283211879873e+03
difigjg[102,707,7,0] 5.1200805886831731e+03
difigjg[102,707,7,1] 3.8750750830910529e+03
difigjg[102,708,7,0] 4.1472956343808692e+03
difigjg[102,708,7,1] 3.9965526050517778e+03
difigjg[102,809,7,0] 3.8741208504077881e+03
difigjg[102,809,7,1] 3.9871922705805614e+03
difigjg[102,909,7,0] 5.2545633078368355e+03
difigjg[102,909,7,1] 3.7804630733441741e+03
difigjg[203,101,7,0] 4.6864384629275764e+03
difigjg[203,101,7,1] 4.7483461026075693e+03
difigjg[203,102,7,0] 4.1284263353916340e+03
difigjg[203,102,7,1] 4.8351343310120765e+03
difigjg[203,303,7,0] 5.0134203918671228e+03
difigjg[203,303,7,1] 4.6714128266604366e+03
difigjg[203,304,7,0] 4094.61106980271
difigjg[203,304,7,1] 4.9340514503800150e+03
difigjg[203,405,7,0] 4.8916977758035591e+03
difigjg[203,405,7,1] 4.1153250012384178e+03
difigjg[203,505,7,0] 5.0975466144761258e+03
difigjg[203,505,7,1] 4.0259186690003894e+03
difigjg[203,506,7,0] 4.1745048748710778e+03
difigjg[203,506,7,1] 4.1086513964387614e+03
difigjg[203,607,7,0] 4.8953249375285077e+03
difigjg[203,607,7,1] 4.0260055950903711e+03
difigjg[203,707,7,0] 5.0845500340013368e+03
difigjg[203,707,7,1] 4.0318954254709324e+03
difigjg[203,708,7,0] 4.1047255357951213e+00
difigjg[203,708,7,1] 4.6099324716508967e+00
difigjg[203,809,7,0] 4.9242311965521731e+03
difigjg[203,809,7,1] 3.9509372360776565e+03
difigjg[203,909,7,0] 5.2232463769607939e+03
difigjg[203,909,7,1] 3.9269239765556667e+03
difigjg[303,101,7,0] 5.3418294082067878e+03
difigjg[303,101,7,1] 3587.59255306662
difigjg[303,102,7,0] 4.4020751113844344e+03
difigjg[303,102,7,1] 3.9754950213835627e+03
difigjg[303,203,7,0] 2.6201478400934225e-01
difigjg[303,203,7,1] 1.1786778273940933e-01
difigjg[303,304,7,0] 5.1117307614841320e+03
difigjg[303,304,7,1] 4.6725169306893049e+03
difigjg[303,405,7,0] 5.2545408120001284e+03
difigjg[303,405,7,1] 3.9228931289322331e+03
difigjg[303,505,7,0] 5.2601069205432632e+03
difigjg[303,505,7,1] 3.9007341313641950e+03
difigjg[303,506,7,0] 5.1907470071955086e+03
difigjg[303,506,7,1] 3.9422676306048811e+03
difigjg[303,607,7,0] 5.1952566162056492e+03
difigjg[303,607,7,1] 3.9527989425400215e+03
difigjg[303,707,7,0] 5.3060312233740724e+03
difigjg[303,707,7,1] 3.6240354252775833e+03
difigjg[303,708,7,0] 4.4164993355585420e+03
difigjg[303,708,7,1] 3.8917492410350196e+03
difigjg[303,809,7,0] 5.1946633724526027e+03
difigjg[303,809,7,1] 3.8924054146576641e+03
difigjg[303,909,7,0] 5.3296397625443406e+03
difigjg[303,909,7,1] 3.6395526584057529e+03
difigjg[304,101,7,0] 5.2202047457756862e+03
difigjg[304,101,7,1] 4011.21829975845
difigjg[304,102,7,0] 4.2785869587892767e+03
difigjg[304,102,7,1] 4145.60384011986
difigjg[304,203,7,0] 4.1143711358362189e+03
difigjg[304,203,7,1] 4.9263166393219153e+03
difigjg[304,303,7,0] 5.0232317836261873e+03
difigjg[304,303,7,1] 4.6867202078892833e+03
difigjg[304,405,7,0] 4.0874547954799373e+03
difigjg[304,405,7,1] 4.9000160860435617e+03
difigjg[304,505,7,0] 4.2623745215403851e+03
difigjg[304,505,7,1] 4.1374220704621794e+03
difigjg[304,506,7,0] 1.7609069594611005e-06
difigjg[304,506,7,1] 4.2097829229191057e-06
difigjg[304,607,7,0] 4.1383251086428445e+03
difigjg[304,607,7,1] 4.0889018209985929e+03
difigjg[304,707,7,0] 5.0904535950865584e+03
difigjg[304,707,7,1] 3.9968079477444489e+03
difigjg[304,708,7,0] 4191.0905369926
difigjg[304,708,7,1] 3.9537222725669221e+03
difigjg[304,809,7,0] 4.2117584431319992e+03
difigjg[304,809,7,1] 4.0232823846997489e+03
difigjg[304,909,7,0] 5.2276453122160410e+03
difigjg[304,909,7,1] 3.8871183614236097e+03
difigjg[405,101,7,0] 4.8296638764468707e+03
difigjg[405,101,7,1] 3.9442958455501680e+03
difigjg[405,102,7,0] 3.8599372781583743e+03
difigjg[405,102,7,1] 4.0918362412339393e+03
difigjg[405,203,7,0] 4.9144439492459151e+03
difigjg[405,203,7,1] 4.1036879371409332e+03
difigjg[405,303,7,0] 5.1621990477455056e+03
difigjg[405,303,7,1] 3.9455944003225632e+03
difigjg[405,304,7,0] 4.0855174988126923e+03
difigjg[405,304,7,1] 4.9019103082614338e+03
difigjg[405,505,7,0] 1.6351871591991221e+00
difigjg[405,505,7,1] 2.7948545675494474e-01
difigjg[405,506,7,0] 4.0665669046157636e+03
difigjg[405,506,7,1] 4.9153180980326406e+03
difigjg[405,607,7,0] 4.9350947661811033e+03
difigjg[405,607,7,1] 4.0476832964645496e+03
difigjg[405,707,7,0] 5.1316173091911205e+03
difigjg[405,707,7,1] 3.9378057821429584e+03
difigjg[405,708,7,0] 4111.07046661093
difigjg[405,708,7,1] 3.9542395572792479e+03
difigjg[405,809,7,0] 4.2925863528882010e+03
difigjg[405,809,7,1] 4.1658429632344341e+03
difigjg[405,909,7,0] 5.2815371588498319e+03
difigjg[405,909,7,1] 3.7982109949881260e+03
difigjg[505,101,7,0] 5213.67977219415
difigjg[505,101,7,1] 3.8162564177402433e+03
difigjg[505,102,7,0] 4334.46303443925
difigjg[505,102,7,1] 3.9921175089850094e+03
difigjg[505,203,7,0] 5.1049575611110758e+03
difigjg[505,203,7,1] 4.0092751326971425e+03
difigjg[505,303,7,0] 5.1689471867269131e+03
difigjg[505,303,7,1] 3.8906451248685344e+03
difigjg[505,304,7,0] 4.2987899441430809e+03
difigjg[505,304,7,1] 4.1217513680120428e+03
difigjg[505,405,7,0] 4.3738035491452338e+03
difigjg[505,405,7,1] 4.6570894256934007e+03
difigjg[505,506,7,0] 4.1701790535410146e+03
difigjg[505,506,7,1] 4.8893071926536049e+03
difigjg[505,607,7,0] 3.0934806399523204e-09
difigjg[505,607,7,1] 3.2893627231901333e-09
difigjg[505,707,7,0] 5.1342866433022409e+03
difigjg[505,707,7,1] 3.9930033369214584e+03
difigjg[505,708,7,0] 4.3123126333764449e+03
difigjg[505,708,7,1] 3.9280368316466611e+03
difigjg[505,809,7,0] 4.4157361439554488e+03
difigjg[505,809,7,1] 4.0715030773159251e+03
difigjg[505,909,7,0] 5.3000243174462257e+03
difigjg[505,909,7,1] 3.8355968090078222e+03
difigjg[506,101,7,0] 5.2061866267777232e+03
difigjg[506,101,7,1] 3.8861864632598940e+03
difigjg[506,102,7,0] 4.9709823288527114e+03
difigjg[506,102,7,1] 3.8594459601171820e+03
difigjg[506,203,7,0] 4.2015136680110218e+03
difigjg[506,203,7,1] 4.0995825224163973e+03
difigjg[506,303,7,0] 5.1179851600606617e+03
difigjg[506,303,7,1] 3.9602186603629193e+03
difigjg[506,304,7,0] 4.9480443834143662e+03
difigjg[506,304,7,1] 3.9628826136367306e+03
difigjg[506,405,7,0] 4.0748102257712417e+03
difigjg[506,405,7,1] 4.9161284933690658e+03
difigjg[506,505,7,0] 4.1499826457085092e+03
difigjg[506,505,7,1] 4.8996759337490466e+03
difigjg[506,607,7,0] 4.0139327783888989e+03
difigjg[506,607,7,1] 4.9396184914742880e+03
difigjg[506,707,7,0] 2.9401507498391283e-01
difigjg[506,707,7,1] 6.6804932064655653e-01
difigjg[506,708,7,0] 4.1950429924427453e+03
difigjg[506,708,7,1] 4.0520620864807561e+03
difigjg[506,809,7,0] 4.0713750189069692e+03
difigjg[506,809,7,1] 4.9086723575901278e+03
difigjg[506,909,7,0] 5.2361930351644032e+03
difigjg[506,909,7,1] 4.0420942955688306e+03
difigjg[607,101,7,0] 4765.75778640104
difigjg[607,101,7,1] 3.9835937661669545e+03
difigjg[607,102,7,0] 4.1894006771002578e+03
difigjg[607,102,7,1] 3.9678139618284426e+03
difigjg[607,203,7,0] 4.9105215138427839e+03
difigjg[607,203,7,1] 4.0151973427261846e+03
difigjg[607,303,7,0] 6.1803888179021160e-01
difigjg[607,303,7,1] 1.7929623974463718e+00
difigjg[607,304,7,0] 4.1336356641384009e+03
difigjg[607,304,7,1] 4.0795980660234613e+03
difigjg[607,405,7,0] 4.9346542908048150e+03
difigjg[607,405,7,1] 4.0511432714695607e+03
difigjg[607,505,7,0] 4.4242049158943364e+03
difigjg[607,505,7,1] 4.1180693479683650e+03
difigjg[607,506,7,0] 4.0120909426931662e+03
difigjg[607,506,7,1] 4.9383258482982010e+03
difigjg[607,707,7,0] 5.1083812910034831e+03
difigjg[607,707,7,1] 4170.61658942542
difigjg[607,708,7,0] 4.0517863149882673e+03
difigjg[607,708,7,1] 4.0529030271832362e+03
difigjg[607,809,7,0] 4927.05215323118
difigjg[607,809,7,1] 4.0877153213700612e+03
difigjg[607,909,7,0] 5.2623595948087332e+03
difigjg[607,909,7,1] 4.0315195002048645e+03
difigjg[707,101,7,0] 5.2835071557892379e+03
difigjg[707,101,7,1] 3.6200025508660183e+03
difigjg[707,102,7,0] 5121.62038650478
difigjg[707,102,7,1] 3.8604002908044176e+03
difigjg[707,203,7,0] 5.0973482842039666e+03
difigjg[707,203,7,1] 4.0375231853668315e+03
difigjg[707,303,7,0] 5.2740600744161311e+03
difigjg[707,303,7,1] 3.6416449607527834e+03
difigjg[707,304,7,0] 5.0843143286281238e+03
difigjg[707,304,7,1] 3.9998502634538968e+03
difigjg[707,405,7,0] 5.1238406334859646e+03
difigjg[707,405,7,1] 3.9529228275654177e+03
difigjg[707,505,7,0] 5.1413589666451935e+03
difigjg[707,505,7,1] 3.9624552787602356e+03
difigjg[707,506,7,0] 4.9817097220513233e+03
difigjg[707,506,7,1] 4735.48326237875
difigjg[707,607,7,0] 5.0966928107120957e+03
difigjg[707,607,7,1] 4.1791144377916617e+03
difigjg[707,708,7,0] 4.4163688503927815e+03
difigjg[707,708,7,1] 3910.90726820843
difigjg[707,809,7,0] 7.7294263360615273e-09
difigjg[707,809,7,1] 5.7805902819835371e-09
difigjg[707,909,7,0] 5.3007185469320493e+03
difigjg[707,909,7,1] 3.6470656064832824e+03
difigjg[708,101,7,0] 4.0400079233626197e+03
difigjg[708,101,7,1] 3.9638162977569573e+03
difigjg[708,102,7,0] 4.1642814237512030e+03
difigjg[708,102,7,1] 3.9980421732645209e+03
difigjg[708,203,7,0] 4.1763536221242712e+03
difigjg[708,203,7,1] 3953.45575528276
difigjg[708,303,7,0] 4.3595425811455189e+03
difigjg[708,303,7,1] 3.9322260582813615e+03
difigjg[708,304,7,0] 4.2025965994821745e+03
difigjg[708,304,7,1] 3.9604694741675403e+03
difigjg[708,405,7,0] 4.1256304023962011e+03
difigjg[708,405,7,1] 3966.3190703522
difigjg[708,505,7,0] 4.2836376445619871e+03
difigjg[708,505,7,1] 3.9407157919633883e+03
difigjg[708,506,7,0] 4.2089540858874816e+03
difigjg[708,506,7,1] 4.0757237246304094e+03
difigjg[708,607,7,0] 4.0618264094781689e+03
difigjg[708,607,7,1] 4.0718530574904130e+03
difigjg[708,707,7,0] 4.4152889025813556e+03
difigjg[708,707,7,1] 3.9225822516694429e+03
difigjg[708,809,7,0] 4.0325000608759246e+03
difigjg[708,809,7,1] 4.8034993471181569e+03
difigjg[708,909,7,0] 1.6538976834543379e-02
difigjg[708,909,7,1] 1.0217971388453686e+00
difigjg[809,101,7,0] 4.7897107146701983e+03
difigjg[809,101,7,1] 3.9270626030199751e+03
difigjg[809,102,7,0] 3.8751965182760505e+03
difigjg[809,102,7,1] 3.9887113081429111e+03
difigjg[809,203,7,0] 4.9435173982266624e+03
difigjg[809,203,7,1] 3.9441063338324843e+03
difigjg[809,303,7,0] 5.1145893110296411e+03
difigjg[809,303,7,1] 3.9102695775703296e+03
difigjg[809,304,7,0] 4.2111699721825753e+03
difigjg[809,304,7,1] 4.0154136662424962e+03
difigjg[809,405,7,0] 2.9562611594393773e-01
difigjg[809,405,7,1] 2.0868171428455269e+00
difigjg[809,505,7,0] 4.4593512325628080e+03
difigjg[809,505,7,1] 4.0517231729146906e+03
difigjg[809,506,7,0] 4.0725622246115922e+03
difigjg[809,506,7,1] 4.9106198761018795e+03
difigjg[809,607,7,0] 4.9274449295329623e+03
difigjg[809,607,7,1] 4.0826805375237241e+03
difigjg[809,707,7,0] 5009.4441563044
difigjg[809,707,7,1] 4.6719646015719718e+03
difigjg[809,708,7,0] 4.0197980780935327e+03
difigjg[809,708,7,1] 4.7908214034974626e+03
difigjg[809,909,7,0] 4.0460167008159465e+03
difigjg[809,909,7,1] 4.2700592365071016e+03
difigjg[909,101,7,0] 6.3686504155010826e-01
difigjg[909,101,7,1] 4.6769851687792174e+00
difigjg[909,102,7,0] 5.1623706297165254e+03
difigjg[909,102,7,1] 3.8029922139907549e+03
difigjg[909,203,7,0] 5.1458563087542052e+03
difigjg[909,203,7,1] 3.9648710547146811e+03
difigjg[909,303,7,0] 5.3174727962560055e+03
difigjg[909,303,7,1] 3.6248531147336034e+03
difigjg[909,304,7,0] 5.1219230526183746e+03
difigjg[909,304,7,1] 3.9359564174258926e+03
difigjg[909,405,7,0] 5.1836748649935344e+03
difigjg[909,405,7,1] 3.8672491642093332e+03
difigjg[909,505,7,0] 5.2051794323926724e+03
difigjg[909,505,7,1] 3.8813604692579906e+03
difigjg[909,506,7,0] 5.1350346039266051e+03
difigjg[909,506,7,1] 4.1108522664101265e+03
difigjg[909,607,7,0] 5.1657189299274842e+03
difigjg[909,607,7,1] 4.0961504729826556e+03
difigjg[909,707,7,0] 5.2248871976935579e+03
difigjg[909,707,7,1] 3.6607901446941896e+03
difigjg[909,708,7,0] 5108.80330772805
difigjg[909,708,7,1] 4.2593500128355017e+03
difigjg[909,809,7,0] 4.0986537480097586e+03
difigjg[909,809,7,1] 4.3038849039093047e+03
pigjg[101,102,7] 6.4785975646962224e-01
pigjg[101,203,7] 0
pigjg[101,303,7] 0
pigjg[101,304,7] 0
pigjg[101,405,7] 0
pigjg[101,505,7] 0
pigjg[101,506,7] 0
pigjg[101,607,7] 0
pigjg[101,707,7] 0
pigjg[101,708,7] 0
pigjg[101,809,7] 0
pigjg[101,909,7] 0
pigjg[102,101,7] 0
pigjg[102,203,7] 0
pigjg[102,303,7] 0
pigjg[102,304,7] 3.6742798776220664e-01
pigjg[102,405,7] 0
pigjg[102,505,7] 0
pigjg[102,506,7] 0
pigjg[102,607,7] 0
pigjg[102,707,7] 0
pigjg[102,708,7] 0
pigjg[102,809,7] 0
pigjg[102,909,7] 0
pigjg[203,101,7] 0
pigjg[203,102,7] 0
pigjg[203,303,7] 0
pigjg[203,304,7] 0
pigjg[203,405,7] 0
pigjg[203,505,7] 0
pigjg[203,506,7] 0
pigjg[203,607,7] 0
pigjg[203,707,7] 0
pigjg[203,708,7] 6.1725399244867720e+00
pigjg[203,809,7] 0
pigjg[203,909,7] 0
pigjg[303,101,7] 0
pigjg[303,102,7] 0
pigjg[303,203,7] 2.8730571066572552e-01
pigjg[303,304,7] 0
pigjg[303,405,7] 0
pigjg[303,505,7] 0
pigjg[303,506,7] 0
pigjg[303,607,7] 0
pigjg[303,707,7] 0
pigjg[303,708,7] 0
pigjg[303,809,7] 0
pigjg[303,909,7] 0
pigjg[304,101,7] 0
pigjg[304,102,7] 0
pigjg[304,203,7] 0
pigjg[304,303,7] 0
pigjg[304,405,7] 0
pigjg[304,505,7] 0
pigjg[304,506,7] 4.5634880649970886e-06
pigjg[304,607,7] 0
pigjg[304,707,7] 0
pigjg[304,708,7] 0
pigjg[304,809,7] 0
pigjg[304,909,7] 0
pigjg[405,101,7] 0
pigjg[405,102,7] 0
pigjg[405,203,7] 0
pigjg[405,303,7] 0
pigjg[405,304,7] 0
pigjg[405,505,7] 1.6588999911295026e+00
pigjg[405,506,7] 0
pigjg[405,607,7] 0
pigjg[405,707,7] 0
pigjg[405,708,7] 0
pigjg[405,809,7] 0
pigjg[405,909,7] 0
pigjg[505,101,7] 0
pigjg[505,102,7] 0
pigjg[505,203,7] 0
pigjg[505,303,7] 0
pigjg[505,304,7] 0
pigjg[505,405,7] 0
pigjg[505,506,7] 0
pigjg[505,607,7] 4.96852295274877e-09
pigjg[505,707,7] 0
pigjg[505,708,7] 0
pigjg[505,809,7] 0
pigjg[505,909,7] 0
pigjg[506,101,7] 0
pigjg[506,102,7] 0
pigjg[506,203,7] 0
pigjg[506,303,7] 0
pigjg[506,304,7] 0
pigjg[506,405,7] 0
pigjg[506,505,7] 0
pigjg[506,607,7] 0
pigjg[506,707,7] 7.2988685442697288e-01
pigjg[506,708,7] 0
pigjg[506,809,7] 0
pigjg[506,909,7] 0
pigjg[607,101,7] 0
pigjg[607,102,7] 0
pigjg[607,203,7] 0
pigjg[607,303,7] 1.8964931381911199e+00
pigjg[607,304,7] 0
pigjg[607,405,7] 0
pigjg[607,505,7] 0
pigjg[607,506,7] 0
pigjg[607,707,7] 0
pigjg[607,708,7] 0
pigjg[607,809,7] 0
pigjg[607,909,7] 0
pigjg[707,101,7] 0
pigjg[707,102,7] 0
pigjg[707,203,7] 0
pigjg[707,303,7] 0
pigjg[707,304,7] 0
pigjg[707,405,7] 0
pigjg[707,505,7] 0
pigjg[707,506,7] 0
pigjg[707,607,7] 0
pigjg[707,708,7] 0
pigjg[707,809,7] 1.0305361285146721e-08
pigjg[707,909,7] 0
pigjg[708,101,7] 0
pigjg[708,102,7] 0
pigjg[708,203,7] 0
pigjg[708,303,7] 0
pigjg[708,304,7] 0
pigjg[708,405,7] 0
pigjg[708,505,7] 0
pigjg[708,506,7] 0
pigjg[708,607,7] 0
pigjg[708,707,7] 0
pigjg[708,809,7] 0
pigjg[708,909,7] 1.0219311267897278e+00
pigjg[809,101,7] 0
pigjg[809,102,7] 0
pigjg[809,203,7] 0
pigjg[809,303,7] 0
pigjg[809,304,7] 0
pigjg[809,405,7] 2.1076528647982653e+00
pigjg[809,505,7] 0
pigjg[809,506,7] 0
pigjg[809,607,7] 0
pigjg[809,707,7] 0
pigjg[809,708,7] 0
pigjg[809,909,7] 0
pigjg[909,101,7] 4.7201470339070983e+00
pigjg[909,102,7] 0
pigjg[909,203,7] 0
pigjg[909,303,7] 0
pigjg[909,304,7] 0
pigjg[909,405,7] 0
pigjg[909,505,7] 0
pigjg[909,506,7] 0
pigjg[909,607,7] 0
pigjg[909,707,7] 0
pigjg[909,708,7] 0
pigjg[909,809,7] 0
Rig[101,7,0] 5.7384697295976821e+00
Rig[101,7,1] 2.5169419477033657e+01
Rig[102,7,0] 5.55078738159084
Rig[102,7,1] 2.5824176299810283e+01
Rig[203,7,0] 9.4845958298724344e+00
Rig[203,7,1] 2.5975292214557815e+01
Rig[303,7,0] 9.5712468566998723e+00
Rig[303,7,1] 2.6093411971379545e+01
Rig[304,7,0] 5.6786606205155472e+00
Rig[304,7,1] 2.6195271614158536e+01
Rig[405,7,0] 9.1941811350866978e+00
Rig[405,7,1] 2.6867093517550465e+01
Rig[505,7,0] 7.1765975064720635e+00
Rig[505,7,1] 2.7372227485990333e+01
Rig[506,7,0] 6.5736897500832008e+00
Rig[506,7,1] 2.7269180001601583e+01
Rig[607,7,0] 8.8117846649229428e+00
Rig[607,7,1] 2.7651712938217081e+01
Rig[707,7,0] 6.1522735669077520e+00
Rig[707,7,1] 2.8869474854641453e+01
Rig[708,7,0] 4.8087999516681386e+00
Rig[708,7,1] 2.9806760857209209e+01
Rig[809,7,0] 9.5001113404885178e+00
Rig[809,7,1] 2.8793842305945820e+01
Rig[909,7,0] 5.3148073564637457e+00
Rig[909,7,1] 2.9909817958497804e+01
rhoig[101,7] 9.1444781393033736e-01
rhoig[102,7] 2.9340259583306860e-01
rhoig[203,7] 1.1080497191150585e-01
rhoig[303,7] 1.6352714737877250e-09
rhoig[304,7] 9.1113860852819073e-01
rhoig[405,7] 5.0350955101783867e-01
rhoig[505,7] 7.3061591836145112e-01
rhoig[506,7] 9.9999932431851235e-01
rhoig[607,7] 9.9999999910776083e-01
rhoig[707,7] 8.0307659263257847e-01
rhoig[708,7] 1.3059590384614594e-01
rhoig[809,7] 0.999999998518696
rhoig[909,7] 8.7600381524340776e-01
Lig[101,7,0] 5.5780170924895174e+00
Lig[101,7,1] 2.5176889043327741e+01
Lig[102,7,0] 5.5546320306136225e+00
Lig[102,7,1] 2.5849410052494981e+01
Lig[203,7,0] 8.9135254629130589e+00
Lig[203,7,1] 2.5196828412258959e+01
Lig[303,7,0] 9.2225810462623485e+00
Lig[303,7,1] 2.6093159993039702e+01
Lig[304,7,0] 6.5736879929436647e+00
Lig[304,7,1] 2.7269175792270925e+01
Lig[405,7,0] 8.8117846647679752e+00
Lig[405,7,1] 2.7651712936255866e+01
Lig[505,7,0] 8.8117846642113591e+00
Lig[505,7,1] 2.7651712937181379e+01
Lig[506,7,0] 5.8582584958735069e+00
Lig[506,7,1] 28.2014255361013
Lig[607,7,0] 8.9532079805733318e+00
Lig[607,7,1] 2.7886374368055836e+01
Lig[707,7,0] 9.5001113340158554e+00
Lig[707,7,1] 2.8793842304806564e+01
Lig[708,7,0] 5.3313461058785627e+00
Lig[708,7,1] 28.8880208202603
Lig[809,7,0] 9.48980724403106
Lig[809,7,1] 2.8953910659855111e+01
Lig[909,7,0] 6.3753347596871777e+00
Lig[909,7,1] 2.9846404645373177e+01
landaig[101,7] 9.6254252145843111e-01
landaig[102,7] 0.26560689064884
landaig[203,7] 0.841060960116792
landaig[303,7] 8.7607193032454234e-02
landaig[304,7] 2.6433014248539166e-06
landaig[405,7] 6.0461147199930565e-10
landaig[505,7] 4.3542058847378939e-11
landaig[506,7] 4.2412743991405222e-01
landaig[607,7] 0.794540410619522
landaig[707,7] 1.5725163393653929e-09
landaig[708,7] 9.9999998653655453e-01
landaig[809,7] 8.1581526740278321e-01
landaig[909,7] 6.5102315591195747e-01
minig[101,7] 4.8094707612750746e-02
minig[102,7] 0
minig[203,7] 7.3025598824755555e-01
minig[303,7] 0.0876071915672263
minig[304,7] 0
minig[405,7] 0
minig[505,7] 0
minig[506,7] 0
minig[607,7] 0
minig[707,7] 0
minig[708,7] 8.6940408273267655e-01
minig[809,7] 0
minig[909,7] 0
maxig[101,7] 0
maxig[102,7] 2.7795705268763043e-02
maxig[203,7] 0
maxig[303,7] 0
maxig[304,7] 9.1113596526903340e-01
maxig[405,7] 5.0350955043436429e-01
maxig[505,7] 7.3061591840246021e-01
maxig[506,7] 5.7587188444668713e-01
maxig[607,7] 2.0545958853051094e-01
maxig[707,7] 8.0307659114463559e-01
maxig[708,7] 0
maxig[809,7] 1.8418473120045067e-01
maxig[909,7] 2.2498065937357065e-01
entryig[101,7] 1
entryig[102,7] 0
entryig[203,7] 1
entryig[303,7] 1
entryig[304,7] 0
entryig[405,7] 0
entryig[505,7] 0
entryig[506,7] 0
entryig[607,7] 0
entryig[707,7] 0
entryig[708,7] 1
entryig[809,7] 0
entryig[909,7] 0
muig[101,7] 1
muig[102,7] 1
muig[203,7] 1
muig[303,7] 1
muig[304,7] 1
muig[405,7] 1
muig[505,7] 1
muig[506,7] 1
muig[607,7] 1
muig[707,7] 1
muig[708,7] 1
muig[809,7] 1
muig[909,7] 1
pig[101,7] 4.8094707612750746e-02
pig[102,7] 2.7795705268763043e-02
pig[203,7] 7.3025598824755555e-01
pig[303,7] 0.0876071915672263
pig[304,7] 9.1113596526903340e-01
pig[405,7] 5.0350955043436429e-01
pig[505,7] 7.3061591840246021e-01
pig[506,7] 5.7587188444668713e-01
pig[607,7] 2.0545958853051094e-01
pig[707,7] 8.0307659114463559e-01
pig[708,7] 8.6940408273267655e-01
pig[809,7] 1.8418473120045067e-01
pig[909,7] 2.2498065937357065e-01
alphaig[101,7] 4.8094707612750746e-02
alphaig[102,7] 2.7795705268763043e-02
alphaig[203,7] 7.3025598824755555e-01
alphaig[303,7] 0.0876071915672263
alphaig[304,7] 9.1113596526903340e-01
alphaig[405,7] 5.0350955043436429e-01
alphaig[505,7] 7.3061591840246021e-01
alphaig[506,7] 5.7587188444668713e-01
alphaig[607,7] 2.0545958853051094e-01
alphaig[707,7] 8.0307659114463559e-01
alphaig[708,7] 8.6940408273267655e-01
alphaig[809,7] 1.8418473120045067e-01
alphaig[909,7] 2.2498065937357065e-01
